(declare-const a Real)
(declare-const b Real)
(declare-const c Real)
(assert (= (+ a b c) 3))
(assert (> a 0))
(assert (> b 0))
(assert (> c 0))
(assert (not (<= (+ (* (pow (+ (* 97280 (pow a 3)) (* 25600 (pow b 3) (pow c 2)) (* 35840 (pow a 2) (pow b 3)) (* 35840 (pow b 2) (pow c 3)) (* 1215 c (pow a 2) (pow b 2))) -1) (pow (+ (* 25600 (pow b 3) (pow c 2)) (* 35840 (pow a 2) (pow b 3)) (* 35840 (pow b 2) (pow c 3)) (* 97280 c (pow a 3)) (* 1215 c (pow a 2) (pow b 2))) 2)) (* -194560 a (pow c 4)) (* -194560 b (pow a 4)) (* -38912 a (pow b 4)) (* -38912 b (pow c 4)) (* -35840 (pow a 2) (pow c 3)) (* -35840 (pow a 3) (pow b 2)) (* (/ -377075 2) c (pow b 4)) (* (/ -65779 2) c (pow a 4)) (* 172032 a b (pow c 3)) (* 196122 a c (pow b 3)) (* 196122 b c (pow a 3))) 0)))
(check-sat)
(get-model)
(exit)